benchmarks_CP/INST_36x36/35/inst36x36_35_13.dzn
S=6;
start=[|
-1,	27,	-1,	20,	-1,	-1,	-1,	18,	-1,	-1,	-1,	-1,	-1,	-1,	-1,	1,	-1,	-1,	-1,	-1,	-1,	-1,	-1,	-1,	-1,	-1,	-1,	-1,	-1,	25,	-1,	-1,	22,	-1,	-1,	-1|
14,	-1,	-1,	-1,	1,	10,	-1,	23,	-1,	-1,	21,	11,	24,	4,	32,	-1,	-1,	6,	-1,	-1,	-1,	-1,	-1,	-1,	-1,	5,	-1,	-1,	-1,	-1,	-1,	27,	-1,	-1,	-1,	-1|
-1,	-1,	-1,	-1,	35,	-1,	-1,	17,	-1,	22,	-1,	14,	-1,	-1,	-1,	33,	-1,	-1,	36,	28,	18,	34,	-1,	25,	27,	4,	-1,	-1,	26,	19,	30,	8,	3,	-1,	-1,	-1|
33,	-1,	-1,	-1,	-1,	-1,	-1,	-1,	-1,	-1,	8,	5,	-1,	-1,	-1,	-1,	17,	25,	22,	10,	12,	-1,	-1,	-1,	7,	-1,	-1,	-1,	-1,	-1,	14,	-1,	-1,	-1,	9,	-1|
-1,	-1,	2,	-1,	-1,	-1,	-1,	-1,	-1,	4,	-1,	-1,	3,	5,	-1,	18,	-1,	28,	32,	17,	27,	20,	30,	6,	-1,	-1,	14,	-1,	21,	-1,	-1,	24,	-1,	31,	-1,	-1|
18,	-1,	-1,	-1,	-1,	-1,	-1,	-1,	-1,	27,	-1,	24,	23,	-1,	-1,	-1,	-1,	-1,	-1,	-1,	-1,	2,	-1,	21,	15,	-1,	13,	17,	-1,	10,	-1,	-1,	-1,	19,	-1,	33|
-1,	24,	25,	-1,	9,	31,	18,	-1,	-1,	20,	-1,	33,	2,	14,	-1,	30,	-1,	29,	17,	-1,	-1,	4,	-1,	23,	-1,	-1,	-1,	-1,	-1,	15,	-1,	-1,	-1,	-1,	35,	27|
29,	11,	-1,	-1,	-1,	-1,	-1,	6,	4,	2,	-1,	32,	12,	-1,	13,	9,	-1,	-1,	-1,	-1,	-1,	-1,	-1,	14,	-1,	-1,	-1,	23,	-1,	-1,	-1,	-1,	15,	-1,	-1,	-1|
-1,	-1,	-1,	2,	-1,	-1,	-1,	12,	9,	21,	15,	29,	-1,	-1,	-1,	4,	-1,	35,	-1,	-1,	16,	-1,	1,	-1,	-1,	27,	5,	-1,	-1,	32,	-1,	-1,	-1,	-1,	-1,	-1|
6,	20,	-1,	-1,	8,	-1,	-1,	-1,	28,	-1,	-1,	-1,	-1,	-1,	11,	-1,	33,	16,	-1,	7,	24,	-1,	-1,	-1,	1,	-1,	35,	-1,	-1,	-1,	-1,	-1,	10,	-1,	3,	21|
-1,	-1,	15,	-1,	-1,	-1,	-1,	-1,	11,	-1,	-1,	-1,	31,	-1,	6,	34,	-1,	-1,	-1,	29,	-1,	-1,	2,	-1,	-1,	-1,	-1,	7,	-1,	-1,	-1,	25,	-1,	13,	22,	-1|
-1,	-1,	-1,	-1,	23,	-1,	-1,	-1,	-1,	7,	19,	-1,	28,	26,	-1,	-1,	-1,	-1,	27,	33,	13,	25,	22,	-1,	-1,	-1,	10,	2,	-1,	-1,	1,	-1,	20,	9,	-1,	5|
-1,	-1,	9,	-1,	-1,	2,	-1,	-1,	-1,	5,	34,	-1,	21,	-1,	4,	35,	18,	-1,	33,	26,	19,	-1,	15,	12,	-1,	-1,	8,	-1,	-1,	-1,	27,	-1,	-1,	-1,	-1,	20|
4,	-1,	-1,	-1,	3,	-1,	-1,	7,	-1,	-1,	6,	-1,	-1,	-1,	-1,	-1,	25,	-1,	21,	-1,	-1,	-1,	20,	-1,	-1,	-1,	-1,	-1,	-1,	35,	-1,	-1,	36,	10,	34,	-1|
-1,	-1,	23,	34,	30,	7,	-1,	35,	-1,	-1,	-1,	-1,	6,	-1,	-1,	-1,	-1,	15,	29,	-1,	-1,	-1,	-1,	-1,	-1,	-1,	-1,	-1,	-1,	-1,	-1,	-1,	-1,	-1,	-1,	-1|
-1,	26,	-1,	33,	-1,	-1,	-1,	-1,	-1,	-1,	-1,	-1,	-1,	7,	27,	-1,	12,	-1,	-1,	35,	-1,	-1,	-1,	-1,	20,	15,	1,	34,	-1,	-1,	-1,	-1,	-1,	-1,	-1,	-1|
-1,	-1,	-1,	18,	-1,	28,	12,	-1,	20,	23,	29,	36,	-1,	30,	-1,	-1,	26,	-1,	-1,	-1,	7,	-1,	5,	-1,	-1,	-1,	-1,	-1,	-1,	22,	-1,	-1,	-1,	-1,	-1,	6|
-1,	-1,	-1,	12,	15,	-1,	-1,	-1,	27,	-1,	24,	-1,	19,	-1,	5,	8,	1,	36,	-1,	-1,	-1,	-1,	-1,	13,	-1,	-1,	7,	-1,	-1,	-1,	-1,	30,	-1,	-1,	32,	-1|
-1,	-1,	20,	8,	25,	-1,	-1,	24,	5,	32,	-1,	-1,	-1,	-1,	-1,	-1,	-1,	-1,	10,	-1,	1,	29,	-1,	-1,	34,	7,	-1,	13,	-1,	17,	-1,	-1,	14,	-1,	30,	-1|
2,	-1,	-1,	29,	-1,	-1,	-1,	4,	-1,	-1,	35,	31,	30,	-1,	-1,	7,	-1,	-1,	12,	-1,	-1,	-1,	36,	-1,	-1,	-1,	20,	-1,	32,	-1,	21,	10,	-1,	26,	11,	-1|
-1,	-1,	-1,	9,	-1,	-1,	23,	21,	-1,	-1,	-1,	28,	-1,	-1,	-1,	-1,	20,	-1,	-1,	34,	6,	-1,	35,	16,	14,	10,	-1,	-1,	-1,	29,	-1,	-1,	-1,	-1,	-1,	-1|
30,	-1,	5,	19,	-1,	18,	-1,	2,	-1,	1,	22,	-1,	-1,	-1,	-1,	28,	4,	-1,	23,	3,	-1,	-1,	-1,	26,	-1,	12,	-1,	-1,	6,	-1,	-1,	-1,	-1,	-1,	36,	-1|
-1,	-1,	-1,	28,	-1,	-1,	33,	-1,	13,	3,	-1,	-1,	16,	-1,	-1,	-1,	5,	27,	25,	-1,	-1,	-1,	-1,	31,	-1,	-1,	22,	-1,	-1,	-1,	-1,	2,	-1,	1,	19,	23|
-1,	-1,	-1,	-1,	12,	22,	-1,	15,	-1,	-1,	-1,	-1,	-1,	-1,	33,	32,	29,	-1,	5,	-1,	9,	19,	17,	-1,	-1,	-1,	-1,	-1,	-1,	-1,	-1,	35,	8,	-1,	-1,	-1|
20,	-1,	-1,	-1,	17,	23,	35,	-1,	-1,	-1,	-1,	22,	-1,	21,	19,	-1,	30,	2,	16,	25,	-1,	-1,	-1,	-1,	-1,	-1,	15,	5,	7,	27,	-1,	-1,	-1,	18,	-1,	-1|
-1,	2,	-1,	-1,	26,	-1,	27,	3,	-1,	-1,	-1,	23,	34,	-1,	-1,	22,	32,	-1,	7,	18,	-1,	-1,	-1,	-1,	25,	-1,	-1,	9,	19,	-1,	10,	21,	33,	-1,	-1,	-1|
-1,	-1,	16,	-1,	34,	-1,	-1,	5,	2,	-1,	-1,	-1,	-1,	28,	-1,	11,	6,	-1,	13,	20,	17,	-1,	-1,	-1,	-1,	-1,	-1,	-1,	30,	-1,	-1,	-1,	26,	-1,	-1,	8|
13,	3,	-1,	11,	-1,	9,	-1,	-1,	-1,	-1,	-1,	-1,	5,	-1,	-1,	-1,	-1,	-1,	2,	-1,	32,	-1,	33,	1,	-1,	35,	-1,	20,	-1,	8,	6,	-1,	-1,	-1,	-1,	-1|
-1,	-1,	-1,	-1,	-1,	-1,	-1,	-1,	-1,	9,	-1,	-1,	-1,	-1,	26,	-1,	-1,	8,	-1,	-1,	-1,	-1,	-1,	-1,	4,	-1,	6,	-1,	11,	-1,	-1,	-1,	-1,	14,	2,	-1|
7,	-1,	30,	-1,	-1,	-1,	-1,	-1,	36,	-1,	32,	21,	-1,	-1,	14,	-1,	-1,	-1,	-1,	-1,	-1,	-1,	-1,	-1,	-1,	-1,	-1,	-1,	-1,	26,	-1,	3,	-1,	-1,	23,	35|
9,	-1,	-1,	4,	2,	36,	-1,	-1,	15,	-1,	27,	-1,	-1,	-1,	-1,	-1,	-1,	19,	26,	-1,	-1,	-1,	29,	-1,	-1,	13,	33,	32,	22,	-1,	18,	-1,	-1,	-1,	-1,	-1|
-1,	-1,	-1,	-1,	-1,	-1,	-1,	-1,	-1,	-1,	-1,	-1,	27,	34,	-1,	-1,	11,	4,	-1,	-1,	-1,	32,	25,	-1,	-1,	-1,	12,	-1,	-1,	-1,	-1,	33,	16,	29,	-1,	-1|
-1,	-1,	34,	-1,	13,	-1,	4,	-1,	-1,	-1,	-1,	-1,	26,	-1,	-1,	29,	31,	-1,	-1,	-1,	30,	1,	9,	19,	-1,	-1,	-1,	-1,	5,	-1,	-1,	-1,	6,	17,	14,	22|
1,	-1,	-1,	-1,	5,	-1,	-1,	-1,	-1,	-1,	11,	7,	-1,	-1,	-1,	-1,	-1,	17,	-1,	-1,	-1,	-1,	-1,	33,	-1,	-1,	-1,	30,	29,	-1,	-1,	36,	-1,	-1,	-1,	34|
-1,	-1,	-1,	35,	-1,	-1,	-1,	-1,	-1,	30,	-1,	-1,	-1,	-1,	-1,	-1,	-1,	-1,	-1,	-1,	-1,	-1,	-1,	-1,	-1,	-1,	-1,	16,	-1,	-1,	-1,	-1,	-1,	-1,	-1,	31|
15,	16,	22,	-1,	32,	30,	-1,	28,	-1,	-1,	20,	-1,	-1,	33,	-1,	-1,	-1,	-1,	-1,	-1,	-1,	-1,	-1,	-1,	18,	-1,	-1,	-1,	27,	-1,	8,	-1,	25,	-1,	26,	-1|];
